
        $ From http://www.csplib.org/Problems/prob009/data/helmut.pdf
        $ Problem number 194
        $ Sequence length : 25
        language ESSENCE' 1.0
        letting sizemaster be 593
        letting sizes be sequence(13,14,15,35,48,51,55,67,73,79,83,91,94,105,109,116,119,124,133,150,171,173,196,217,226)
        